c LEQ(domain6,domain6) T(domain6) LEQ(domain3,domain6) LEQ(domain6,domain3) T(domain3) LEQ(domain6,domain1) LEQ(domain1,domain6) T(domain1) LEQ(domain2,domain6) LEQ(domain6,domain2) T(domain2) T(domain5) LEQ(domain6,domain5) LEQ(domain5,domain6) T(domain8) LEQ(domain8,domain6) LEQ(domain6,domain8) LEQ(domain9,domain6) LEQ(domain6,domain9) T(domain9) T(domain0) LEQ(domain6,domain0) LEQ(domain0,domain6) LEQ(domain6,domain4) T(domain4) LEQ(domain4,domain6) LEQ(domain7,domain6) LEQ(domain6,domain7) T(domain7) LEQ(domain3,domain3) LEQ(domain3,domain1) LEQ(domain1,domain3) LEQ(domain3,domain2) LEQ(domain2,domain3) LEQ(domain5,domain3) LEQ(domain3,domain5) LEQ(domain8,domain3) LEQ(domain3,domain8) LEQ(domain9,domain3) LEQ(domain3,domain9) LEQ(domain0,domain3) LEQ(domain3,domain0) LEQ(domain3,domain4) LEQ(domain4,domain3) LEQ(domain3,domain7) LEQ(domain7,domain3) LEQ(domain1,domain1) LEQ(domain1,domain2) LEQ(domain2,domain1) LEQ(domain5,domain1) LEQ(domain1,domain5) LEQ(domain1,domain8) LEQ(domain8,domain1) LEQ(domain9,domain1) LEQ(domain1,domain9) LEQ(domain1,domain0) LEQ(domain0,domain1) LEQ(domain4,domain1) LEQ(domain1,domain4) LEQ(domain1,domain7) LEQ(domain7,domain1) LEQ(domain2,domain2) LEQ(domain2,domain5) LEQ(domain5,domain2) LEQ(domain2,domain8) LEQ(domain8,domain2) LEQ(domain2,domain9) LEQ(domain9,domain2) LEQ(domain0,domain2) LEQ(domain2,domain0) LEQ(domain4,domain2) LEQ(domain2,domain4) LEQ(domain7,domain2) LEQ(domain2,domain7) LEQ(domain5,domain5) LEQ(domain8,domain5) LEQ(domain5,domain8) LEQ(domain9,domain5) LEQ(domain5,domain9) LEQ(domain0,domain5) LEQ(domain5,domain0) LEQ(domain5,domain4) LEQ(domain4,domain5) LEQ(domain7,domain5) LEQ(domain5,domain7) LEQ(domain8,domain8) LEQ(domain9,domain8) LEQ(domain8,domain9) LEQ(domain8,domain0) LEQ(domain0,domain8) LEQ(domain4,domain8) LEQ(domain8,domain4) LEQ(domain8,domain7) LEQ(domain7,domain8) LEQ(domain9,domain9) LEQ(domain9,domain0) LEQ(domain0,domain9) LEQ(domain9,domain4) LEQ(domain4,domain9) LEQ(domain9,domain7) LEQ(domain7,domain9) LEQ(domain0,domain0) LEQ(domain4,domain0) LEQ(domain0,domain4) LEQ(domain0,domain7) LEQ(domain7,domain0) LEQ(domain4,domain4) LEQ(domain4,domain7) LEQ(domain7,domain4) LEQ(domain7,domain7)
c 1 2 3 4 5 6 7 8 9 10 11 12 13 14 15 16 17 18 19 20 21 22 23 24 25 26 27 28 29 30 31 32 33 34 35 36 37 38 39 40 41 42 43 44 45 46 47 48 49 50 51 52 53 54 55 56 57 58 59 60 61 62 63 64 65 66 67 68 69 70 71 72 73 74 75 76 77 78 79 80 81 82 83 84 85 86 87 88 89 90 91 92 93 94 95 96 97 98 99 100 101 102 103 104 105 106 107 108 109 110
p cnf 110 100
21 -102 -21 0
21 -56 -8 0
21 -70 -11 0
21 -42 -5 0
21 -103 -25 0
21 -81 -12 0
21 -22 -2 0
21 -106 -29 0
21 -89 -15 0
21 -96 -20 0
8 -57 -21 0
8 -47 -8 0
8 -49 -11 0
8 -31 -5 0
8 -58 -25 0
8 -50 -12 0
8 -6 -2 0
8 -61 -29 0
8 -53 -15 0
8 -54 -20 0
11 -69 -21 0
11 -48 -8 0
11 -62 -11 0
11 -33 -5 0
11 -71 -25 0
11 -64 -12 0
11 -10 -2 0
11 -73 -29 0
11 -66 -15 0
11 -68 -20 0
5 -41 -21 0
5 -32 -8 0
5 -34 -11 0
5 -30 -5 0
5 -44 -25 0
5 -35 -12 0
5 -4 -2 0
5 -46 -29 0
5 -37 -15 0
5 -39 -20 0
25 -104 -21 0
25 -59 -8 0
25 -72 -11 0
25 -43 -5 0
25 -107 -25 0
25 -82 -12 0
25 -24 -2 0
25 -109 -29 0
25 -92 -15 0
25 -98 -20 0
12 -80 -21 0
12 -51 -8 0
12 -63 -11 0
12 -36 -5 0
12 -83 -25 0
12 -75 -12 0
12 -13 -2 0
12 -84 -29 0
12 -76 -15 0
12 -78 -20 0
2 -23 -21 0
2 -7 -8 0
2 -9 -11 0
2 -3 -5 0
2 -26 -25 0
2 -14 -12 0
2 -1 -2 0
2 -27 -29 0
2 -16 -15 0
2 -18 -20 0
29 -105 -21 0
29 -60 -8 0
29 -74 -11 0
29 -45 -5 0
29 -108 -25 0
29 -85 -12 0
29 -28 -2 0
29 -110 -29 0
29 -93 -15 0
29 -100 -20 0
15 -90 -21 0
15 -52 -8 0
15 -65 -11 0
15 -38 -5 0
15 -91 -25 0
15 -77 -12 0
15 -17 -2 0
15 -94 -29 0
15 -86 -15 0
15 -87 -20 0
20 -97 -21 0
20 -55 -8 0
20 -67 -11 0
20 -40 -5 0
20 -99 -25 0
20 -79 -12 0
20 -19 -2 0
20 -101 -29 0
20 -88 -15 0
20 -95 -20 0
